NAME : input100_3.txt .out.tour
COMMENT : Tour for input100_3.txt .tsp (Length 977.001)
TYPE : TOUR
DIMENSION : 100
TOUR_SECTION
1
7
72
83
30
55
80
78
50
98
81
70
41
76
34
29
84
42
18
4
66
63
54
94
28
58
31
37
85
89
71
27
9
64
82
91
100
53
67
99
97
2
20
77
74
90
59
15
33
56
25
57
14
75
52
43
21
88
3
38
36
11
46
44
17
16
5
65
35
6
61
24
26
48
45
23
86
10
92
68
93
79
87
62
73
12
40
22
13
8
39
47
60
19
96
95
69
51
49
32
1
